NAME = SAfile175,
TOURSIZE = 175,
LENGTH = 43631,
117,90,73,40,32,58,1,78,25,139,173,24,43,19,165,60,84,144,112,54,34,3,124,93,74,53,162,80,152,47,7,86,37,27,174,128,134,45,49,143,163,167,13,46,72,65,14,150,22,171,175,77,85,48,50,64,61,29,15,164,89,172,16,2,132,111,63,137,131,21,156,145,138,141,158,12,140,149,120,100,42,151,114,136,4,142,115,52,55,66,69,99,98,109,20,119,31,87,161,83,57,130,127,26,159,94,30,81,76,107,110,28,97,5,105,103,82,169,129,126,157,71,95,96,75,146,33,67,17,23,92,102,118,170,116,122,79,104,123,44,36,56,155,121,154,70,91,41,101,38,148,108,166,9,10,59,11,153,18,106,88,135,8,125,51,113,68,39,133,62,6,160,168,147,35